NAME: instance_2823
TYPE: TSP
DIMENSION: 20
EDGE_WEIGHT_TYPE: EUC_2D
NODE_COORD_SECTION
0 67.41 98.13
1 14.67 47.44
2 46.74 69.02
3 47.29 64.72
4 47.38 41.55
5 25.44 89.79
6 81.83 0.66
7 9.79 66.10
8 67.57 66.06
9 81.39 15.05
10 57.33 31.99
11 96.27 98.54
12 98.67 56.66
13 56.89 34.38
14 68.88 87.78
15 17.19 19.00
16 63.54 75.56
17 87.06 24.76
18 41.04 80.38
19 70.01 29.90
EOF
